NAME: tsp30-36
TYPE: TSP
DIMENSION: 30
EDGE_WEIGHT_TYPE: EUC_2D
NODE_COORD_SECTION
0 53 3
1 15 33
2 62 36
3 51 10
4 81 34
5 58 27
6 56 100
7 44 32
8 8 71
9 45 36
10 27 92
11 78 5
12 43 93
13 27 49
14 94 0
15 30 33
16 49 72
17 80 2
18 2 81
19 84 90
20 34 39
21 28 91
22 85 94
23 34 100
24 81 0
25 9 47
26 48 0
27 20 76
28 5 24
29 80 9
EOF